%SETS
JOBS     = 1..3;
MACHINES = 1..14;
SPEED    = 1;

time               = array3d(JOBS,MACHINES,1..SPEED,[16, 17, 11, 84, 80, 88, 98, 81, 51, 80, 20, 67, 22, 95, 56, 47, 33, 79, 51, 61, 11, 65, 65, 65, 94, 71, 42, 49, 72, 15, 70, 70, 28, 21, 38, 42, 61, 49, 98, 19, 28, 24]);
energy             = array3d(JOBS,MACHINES,1..SPEED,[85, 84, 89, 43, 44, 41, 37, 44, 60, 44, 81, 51, 80, 38, 57, 62, 71, 45, 60, 54, 89, 52, 52, 52, 39, 49, 65, 61, 48, 86, 49, 49, 75, 81, 68, 65, 54, 61, 37, 82, 75, 78]);
precedence         = array2d(JOBS,MACHINES,[4,3,1,9,13,6,5,8,11,2,0,7,10,12,12,9,8,13,7,11,3,2,6,1,5,0,10,4,13,3,8,7,2,11,4,12,6,10,1,0,5,9]);